100
1000
795
217
118
185
457
827
519
570
427
715
29
853
751
889
353
927
599
393
662
784
965
174
863
593
666
401
15
188
249
211
972
835
780
992
496
110
180
605
700
509
989
308
484
539
479
869
45
357
274
579
881
257
984
840
971
422
177
662
275
424
774
517
547
743
826
613
673
97
297
505
923
306
63
829
113
84
90
261
910
59
95
789
958
794
900
597
955
423
222
543
161
872
401
441
839
475
645
447
181
454
